CSW01
Position Depot: Center
Horizon for Depot: Small
Position of customers: Cluster
Distribution of the demand: Small
Width of time windows: Wide
Distribution of the service: Large

VEHICLE 
NUMBER 	 CAPACITY 
 5 	 	 124 
 
CUSTOMER
CUST NO. 	 XCOORD.  	 YCOORD. 	 DEMAND 	 READY TIME 	 DUE DATE 	 SERVICE TIME 
 0 	 	 500 	 	 500 	 	 0 	 	 0 	 	 1627 	 	 0 
  1 	 	 560 	 	 435 	 	 6 	 	 1250 	 	 1469 	 	 148 
  2 	 	 375 	 	 727 	 	 10 	 	 659 	 	 1071 	 	 122 
  3 	 	 12 	 	 916 	 	 5 	 	 1049 	 	 1465 	 	 185 
  4 	 	 485 	 	 363 	 	 10 	 	 885 	 	 1097 	 	 169 
  5 	 	 22 	 	 807 	 	 8 	 	 698 	 	 926 	 	 193 
  6 	 	 541 	 	 399 	 	 8 	 	 1098 	 	 1574 	 	 125 
  7 	 	 459 	 	 789 	 	 9 	 	 3 	 	 321 	 	 196 
  8 	 	 296 	 	 667 	 	 8 	 	 1190 	 	 1627 	 	 128 
  9 	 	 566 	 	 852 	 	 7 	 	 770 	 	 1222 	 	 116 
  10 	 	 383 	 	 735 	 	 9 	 	 649 	 	 994 	 	 126 
  11 	 	 583 	 	 382 	 	 7 	 	 232 	 	 464 	 	 166 
  12 	 	 382 	 	 396 	 	 9 	 	 787 	 	 1242 	 	 110 
  13 	 	 440 	 	 309 	 	 8 	 	 465 	 	 927 	 	 160 
  14 	 	 133 	 	 783 	 	 5 	 	 617 	 	 996 	 	 152 
  15 	 	 103 	 	 930 	 	 8 	 	 1181 	 	 1502 	 	 195 
  16 	 	 323 	 	 721 	 	 7 	 	 447 	 	 700 	 	 161 
  17 	 	 600 	 	 393 	 	 10 	 	 750 	 	 1117 	 	 177 
  18 	 	 544 	 	 555 	 	 5 	 	 513 	 	 750 	 	 194 
  19 	 	 303 	 	 705 	 	 5 	 	 1176 	 	 1387 	 	 117 
  20 	 	 371 	 	 620 	 	 5 	 	 1264 	 	 1627 	 	 136 
  21 	 	 576 	 	 399 	 	 6 	 	 494 	 	 706 	 	 114 
  22 	 	 480 	 	 415 	 	 6 	 	 1356 	 	 1618 	 	 197 
  23 	 	 452 	 	 682 	 	 10 	 	 280 	 	 541 	 	 186 
  24 	 	 594 	 	 359 	 	 8 	 	 411 	 	 905 	 	 151 
  25 	 	 58 	 	 931 	 	 9 	 	 630 	 	 974 	 	 189 
  26 	 	 559 	 	 360 	 	 6 	 	 -47 	 	 417 	 	 130 
  27 	 	 395 	 	 727 	 	 6 	 	 985 	 	 1450 	 	 103 
  28 	 	 549 	 	 569 	 	 5 	 	 197 	 	 638 	 	 186 
  29 	 	 394 	 	 759 	 	 5 	 	 455 	 	 849 	 	 180 
  30 	 	 369 	 	 694 	 	 7 	 	 -58 	 	 358 	 	 158 
  31 	 	 397 	 	 681 	 	 8 	 	 290 	 	 564 	 	 179 
  32 	 	 42 	 	 921 	 	 6 	 	 1182 	 	 1428 	 	 147 
  33 	 	 476 	 	 394 	 	 9 	 	 319 	 	 741 	 	 168 
  34 	 	 606 	 	 404 	 	 9 	 	 1128 	 	 1627 	 	 134 
  35 	 	 562 	 	 447 	 	 10 	 	 344 	 	 796 	 	 196 
  36 	 	 356 	 	 655 	 	 8 	 	 761 	 	 1019 	 	 103 
  37 	 	 470 	 	 417 	 	 7 	 	 770 	 	 1095 	 	 169 
  38 	 	 560 	 	 392 	 	 7 	 	 409 	 	 778 	 	 127 
  39 	 	 114 	 	 978 	 	 7 	 	 1129 	 	 1627 	 	 106 
  40 	 	 365 	 	 739 	 	 9 	 	 769 	 	 1199 	 	 106 
  41 	 	 17 	 	 931 	 	 10 	 	 491 	 	 908 	 	 143 
  42 	 	 356 	 	 729 	 	 6 	 	 403 	 	 900 	 	 138 
  43 	 	 586 	 	 355 	 	 5 	 	 1122 	 	 1406 	 	 135 
  44 	 	 557 	 	 432 	 	 8 	 	 -52 	 	 396 	 	 115 
  45 	 	 540 	 	 406 	 	 8 	 	 272 	 	 528 	 	 111 
  46 	 	 496 	 	 574 	 	 8 	 	 665 	 	 915 	 	 161 
  47 	 	 440 	 	 704 	 	 9 	 	 1040 	 	 1432 	 	 115 
  48 	 	 686 	 	 500 	 	 7 	 	 1140 	 	 1627 	 	 112 
  49 	 	 580 	 	 379 	 	 6 	 	 413 	 	 907 	 	 169 
  50 	 	 418 	 	 757 	 	 5 	 	 -5 	 	 296 	 	 137 
  51 	 	 296 	 	 726 	 	 5 	 	 1192 	 	 1522 	 	 174 
  52 	 	 290 	 	 794 	 	 5 	 	 171 	 	 397 	 	 171 
  53 	 	 380 	 	 646 	 	 5 	 	 -104 	 	 379 	 	 189 
  54 	 	 683 	 	 296 	 	 8 	 	 943 	 	 1441 	 	 106 
  55 	 	 509 	 	 413 	 	 6 	 	 424 	 	 855 	 	 192 
  56 	 	 615 	 	 345 	 	 9 	 	 25 	 	 494 	 	 187 
  57 	 	 63 	 	 840 	 	 8 	 	 1177 	 	 1535 	 	 198 
  58 	 	 132 	 	 839 	 	 10 	 	 237 	 	 550 	 	 125 
  59 	 	 541 	 	 526 	 	 8 	 	 1094 	 	 1582 	 	 167 
  60 	 	 853 	 	 233 	 	 5 	 	 181 	 	 486 	 	 122 
  61 	 	 601 	 	 392 	 	 6 	 	 1265 	 	 1627 	 	 164 
  62 	 	 557 	 	 406 	 	 5 	 	 747 	 	 1085 	 	 189 
  63 	 	 577 	 	 514 	 	 10 	 	 853 	 	 1295 	 	 141 
  64 	 	 380 	 	 656 	 	 8 	 	 -105 	 	 244 	 	 116 
  65 	 	 573 	 	 414 	 	 6 	 	 1125 	 	 1587 	 	 127 
  66 	 	 395 	 	 669 	 	 6 	 	 421 	 	 779 	 	 107 
  67 	 	 29 	 	 930 	 	 6 	 	 1236 	 	 1500 	 	 102 
  68 	 	 361 	 	 704 	 	 5 	 	 40 	 	 412 	 	 117 
  69 	 	 573 	 	 429 	 	 6 	 	 485 	 	 891 	 	 142 
  70 	 	 42 	 	 929 	 	 7 	 	 194 	 	 690 	 	 164 
  71 	 	 330 	 	 743 	 	 9 	 	 685 	 	 1045 	 	 131 
  72 	 	 72 	 	 907 	 	 10 	 	 386 	 	 649 	 	 117 
  73 	 	 592 	 	 471 	 	 10 	 	 194 	 	 468 	 	 199 
  74 	 	 351 	 	 723 	 	 8 	 	 944 	 	 1357 	 	 141 
  75 	 	 594 	 	 394 	 	 7 	 	 1097 	 	 1483 	 	 102 
  76 	 	 533 	 	 353 	 	 5 	 	 1155 	 	 1394 	 	 171 
  77 	 	 570 	 	 437 	 	 6 	 	 43 	 	 325 	 	 186 
  78 	 	 413 	 	 777 	 	 7 	 	 195 	 	 632 	 	 192 
  79 	 	 336 	 	 658 	 	 7 	 	 1125 	 	 1503 	 	 154 
  80 	 	 336 	 	 757 	 	 5 	 	 731 	 	 1007 	 	 104 
  81 	 	 393 	 	 688 	 	 5 	 	 764 	 	 1108 	 	 118 
  82 	 	 418 	 	 350 	 	 8 	 	 211 	 	 566 	 	 138 
  83 	 	 351 	 	 712 	 	 9 	 	 773 	 	 1169 	 	 172 
  84 	 	 568 	 	 455 	 	 6 	 	 281 	 	 536 	 	 145 
  85 	 	 570 	 	 421 	 	 6 	 	 584 	 	 880 	 	 187 
  86 	 	 0 	 	 849 	 	 9 	 	 379 	 	 752 	 	 125 
  87 	 	 580 	 	 431 	 	 9 	 	 189 	 	 670 	 	 141 
  88 	 	 634 	 	 455 	 	 6 	 	 961 	 	 1254 	 	 149 
  89 	 	 561 	 	 379 	 	 7 	 	 892 	 	 1184 	 	 190 
  90 	 	 599 	 	 339 	 	 8 	 	 1175 	 	 1535 	 	 126 
  91 	 	 475 	 	 452 	 	 9 	 	 1116 	 	 1452 	 	 135 
  92 	 	 364 	 	 704 	 	 8 	 	 132 	 	 477 	 	 100 
  93 	 	 326 	 	 684 	 	 6 	 	 1308 	 	 1627 	 	 143 
  94 	 	 10 	 	 905 	 	 10 	 	 370 	 	 699 	 	 182 
  95 	 	 270 	 	 623 	 	 8 	 	 575 	 	 948 	 	 186 
  96 	 	 15 	 	 979 	 	 5 	 	 428 	 	 891 	 	 156 
  97 	 	 283 	 	 711 	 	 10 	 	 616 	 	 1110 	 	 105 
  98 	 	 344 	 	 702 	 	 6 	 	 87 	 	 311 	 	 159 
  99 	 	 439 	 	 780 	 	 6 	 	 1171 	 	 1442 	 	 139 
  100 	 	 346 	 	 748 	 	 9 	 	 616 	 	 975 	 	 125 
 